(declare-const x0 Real)
(assert (<= 0.125000 x0))
(declare-const x1 Real)
(assert (<= 0.0 x1))
(declare-const x2 Real)
(assert (<= 0.0 x2))
(declare-const x3 Real)

(assert (<= (- 0.013600) (* (- 0.000001) (sqrt (+ (^ (/ 6000.0 (* (* 1.414000 x0) x1)) 2.0) (/ (* (* (* 2.0 (/ 6000.0 (* (* 1.414000 x0) x1))) (/ (* (+ 42000.0 (* 1500.0 x1)) (sqrt (+ (^ x1 2.0) (^ (+ x0 x2) 2.0)))) (* (* (* 0.707000 x0) x1) (+ (/ (^ x1 2.0) 6.0) (/ (^ (+ x0 x2) 2.0) 2.0))))) x1) (sqrt (+ (^ x1 2.0) (^ (+ x0 x2) 2.0)))) (^ (/ (* (+ 42000.0 (* 1500.0 x1)) (sqrt (+ (^ x1 2.0) (^ (+ x0 x2) 2.0)))) (* (* (* 0.707000 x0) x1) (+ (/ (^ x1 2.0) 6.0) (/ (^ (+ x0 x2) 2.0) 2.0)))) 2.0))))))
(assert (<= (- 3.0) (- (/ 5.040000 (* x3 (^ x2 2.0))))))
(assert (<= 0.006000 (* 0.000000 (* (* 4.013000 (sqrt (* (* 2500000.0 (* x2 (^ x3 3.0))) (* 1000000.0 (* (* 4.0 x2) (^ x3 3.0)))))) (- 1.0 (/ (* x2 (sqrt (/ (* 2500000.0 (* x2 (^ x3 3.0))) (* 1000000.0 (* (* 4.0 x2) (^ x3 3.0)))))) 28.0))))))
(assert (<= (- 0.250000) (- (/ 2.195200 (* x3 (^ x2 3.0))))))
(assert (<= 0.0 (+ (* (- 1.0) x0) (* 1.0 x3))))

(minimize
	(+ (* (* 1.104710 (^ x0 2.0)) x1) (* (* (* 0.048110 x2) x3) (+ 14.0 x1)))
)
(check-sat)
(get-objectives)
(exit)

